152480
69,79,12,0,9,28,44,63,72,45,65,20,8,31,73,57,76,39,32,26,6,16,19,35,70,53,21,52,58,67,43,81,10,74,27,15,71,80,50,55,37,34,29,1,42,56,46,48,33,59,11,2,22,24,54,41,68,14,5,60,78,7,82,62,38,51,40,77,49,3,64,18,47,23,4,30,17,36,61,13,25,75,66